\ Model Routes
\ LP format - for model browsing. Use MPS format to capture full model detail.
Maximize
  1305.427206194839 R{0,0} + 2363.878024458567 R{0,1}
   + 2363.878024458567 R{0,2} - 249.2301939667805 R{0,3}
   + 222.8649545650627 R{0,4} + 892.5014194710873 R{0,5}
   + 1430.104571165688 R{0,6} + 1422.530001078216 R{0,7}
   + 1361.591744667298 R{0,8} + 2497.832493291201 R{0,9}
   + 1347.39478571716 R{0,10} + 1296.062348376955 R{0,11}
   + 516.2614190866586 R{0,12} + 1833.001873763423 R{0,13}
   + 859.5105570619462 R{0,14} + 1304.903708890978 R{0,15}
   + 740.3774668188905 R{0,16} + 1367.366911605939 R{0,17}
   + 871.5668000549892 R{0,18} + 1503.191681875253 R{0,19}
   + 1539.290980686245 R{0,20} + 445.8029782107916 R{0,21}
   + 1161.280382871987 R{0,22} + 1702.651493260636 R{0,23}
   + 890.0334554773167 R{0,24} + 915.5877158587052 R{0,25}
   + 914.3567035394801 R{0,26} + 1064.819342612361 R{0,27}
   + 526.3751705360578 R{0,28} + 1491.958939546784 R{0,29}
   + 1092.377993914699 R{0,30} + 1102.461123641915 R{0,31}
   + 1827.328858231485 R{0,32} + 1096.396464130266 R{0,33}
   - 256.140831891889 R{1,0} + 41.44651618699046 R{1,1}
   + 468.947430945026 R{1,2} + 79.23743184435932 R{1,3}
   + 729.6784362525084 R{1,4} + 113.0626312224127 R{1,5}
   + 466.1512155265586 R{1,6} + 466.1512155265586 R{1,7}
   + 705.4352080196788 R{1,8} + 113.0626312224127 R{1,9}
   + 285.6074479554433 R{1,10} - 278.4443928850388 R{2,0}
   - 59.13410337035452 R{2,1} + 602.7748664658451 R{2,2}
   + 1100.505917706273 R{2,3} + 254.2699887389686 R{2,4}
   + 658.9260592062412 R{2,5} + 245.0354612688821 R{2,6}
   + 906.9444311050818 R{2,7} + 343.0278567647313 R{2,8}
   + 245.0354612688821 R{2,9} + 342.2555761003598 R{2,10}
   + 192.9178856764246 R{2,11} - 260.2482995389823 R{3,0}
   + 637.8926476026959 R{3,1} + 2105.287740450534 R{3,2}
   + 2466.290457720655 R{3,3} + 2338.883056259137 R{3,4}
   + 1674.967258813986 R{3,5} + 1955.856409284347 R{3,6}
   + 1783.012904751189 R{3,7} + 1287.414905297921 R{3,8}
   + 1854.814790520791 R{3,9} + 1650.93136082592 R{3,10}
   + 1634.804601333249 R{3,11} + 2382.512921573654 R{3,12}
   + 1174.052983821542 R{3,13} + 2008.631474808522 R{3,14}
   + 2202.18989068879 R{3,15} + 1341.361359063808 R{3,16}
   + 2176.341831830483 R{3,17} + 1489.173094720423 R{3,18}
   + 1093.939319778058 R{3,19} + 2393.932469398025 R{3,20}
   + 2368.442426531071 R{3,21} + 2080.705393269187 R{3,22}
   + 1087.912143837825 R{3,23} + 1886.862888194883 R{3,24}
   + 2176.341831830483 R{3,25} + 1662.350908650291 R{3,26}
   + 1668.988453935268 R{3,27} - 242.5208875955131 R{4,0}
   + 1055.572474837385 R{4,1} + 1576.196574514046 R{4,2}
   + 1243.182504172769 R{4,3} + 1091.026981524554 R{4,4}
   + 1076.646053538534 R{4,5} + 879.1176167407207 R{4,6}
   + 913.7878416277072 R{4,7} + 551.816374624379 R{4,8}
   + 525.3934735920159 R{4,9} + 2039.10049209481 R{4,10}
   + 1570.970095052946 R{4,11} + 2039.10049209481 R{4,12}
   + 1128.229038801153 R{4,13} + 1600.37873589961 R{4,14}
   + 1496.301442750229 R{4,15} + 1515.367809733735 R{4,16}
   + 1425.901966884533 R{4,17} + 1307.692823630039 R{4,18}
   + 443.6067588655657 R{4,19} + 1570.970095052946 R{4,20}
   + 1208.998628049618 R{4,21} + 1490.864340794302 R{4,22}
   + 946.9116894331139 R{4,23} + 1179.6071156378 R{4,24}
   + 903.5106338448927 R{4,25} + 1496.301442750229 R{4,26}
   + 1094.135564208969 R{4,27} + 893.6783946752951 R{4,28}
   - 231.9775664337766 R{5,0} + 242.1080744790759 R{5,1}
   + 1358.300299535796 R{5,2} + 1358.300299535796 R{5,3}
   + 227.0083610254147 R{5,4} + 985.1933563315217 R{5,5}
   + 383.9990341037064 R{5,6} + 561.1802622604323 R{5,7}
   + 1341.047386144631 R{5,8} + 427.8531276309369 R{5,9}
   + 237.3247974440027 R{5,10} + 933.7796719289381 R{5,11}
   + 383.9990341037064 R{5,12} + 679.4489984909005 R{5,13}
   + 449.1514488185693 R{5,14} + 656.2128225723428 R{5,15}
   + 726.2886497102609 R{5,16} - 231.1436095783099 R{6,0}
   + 1195.286596672249 R{6,1} + 2138.911397941406 R{6,2}
   + 2560.066428814385 R{6,3} + 2778.281828209556 R{6,4}
   + 2053.711998092663 R{6,5} + 1720.937391969052 R{6,6}
   + 2175.032072742623 R{6,7} + 1155.638382365009 R{6,8}
   + 1423.340405990232 R{6,9} + 1744.09112189464 R{6,10}
   + 960.5736832611592 R{6,11} + 1744.09112189464 R{6,12}
   + 1211.629176769615 R{6,13} + 623.4662442882523 R{6,14}
   + 2339.474721607915 R{6,15} + 1767.778433633887 R{6,16}
   + 2062.098073160671 R{6,17} + 1482.565425817081 R{6,18}
   + 2409.591481365752 R{6,19} + 2395.386582605284 R{6,20}
   + 1594.129088852883 R{6,21} + 2321.913138374627 R{6,22}
   + 711.8779010352796 R{6,23} + 1162.349541835437 R{6,24}
   + 2520.878007762263 R{6,25} + 1843.509199960325 R{6,26}
   + 2183.987120342746 R{6,27} + 728.0654985365031 R{6,28}
   + 1280.978140790553 R{6,29} + 798.2542675398115 R{6,30}
   + 961.4707093360598 R{6,31}
Subject To
 R00: R{0,0} <= 1
 R01: R{0,1} <= 1
 R02: R{0,2} <= 1
 R03: R{0,3} <= 1
 R04: R{0,4} <= 1
 R05: R{0,5} <= 1
 R06: R{0,6} <= 1
 R07: R{0,7} <= 1
 R08: R{0,8} <= 1
 R09: R{0,9} <= 1
 R010: R{0,10} <= 1
 R011: R{0,11} <= 1
 R012: R{0,12} <= 1
 R013: R{0,13} <= 1
 R014: R{0,14} <= 1
 R015: R{0,15} <= 1
 R016: R{0,16} <= 1
 R017: R{0,17} <= 1
 R018: R{0,18} <= 1
 R019: R{0,19} <= 1
 R020: R{0,20} <= 1
 R021: R{0,21} <= 1
 R022: R{0,22} <= 1
 R023: R{0,23} <= 1
 R024: R{0,24} <= 1
 R025: R{0,25} <= 1
 R026: R{0,26} <= 1
 R027: R{0,27} <= 1
 R028: R{0,28} <= 1
 R029: R{0,29} <= 1
 R030: R{0,30} <= 1
 R031: R{0,31} <= 1
 R032: R{0,32} <= 1
 R033: R{0,33} <= 1
 R034: R{1,0} <= 1
 R035: R{1,1} <= 1
 R036: R{1,2} <= 1
 R037: R{1,3} <= 1
 R038: R{1,4} <= 1
 R039: R{1,5} <= 1
 R040: R{1,6} <= 1
 R041: R{1,7} <= 1
 R042: R{1,8} <= 1
 R043: R{1,9} <= 1
 R044: R{1,10} <= 1
 R045: R{2,0} <= 1
 R046: R{2,1} <= 1
 R047: R{2,2} <= 1
 R048: R{2,3} <= 1
 R049: R{2,4} <= 1
 R050: R{2,5} <= 1
 R051: R{2,6} <= 1
 R052: R{2,7} <= 1
 R053: R{2,8} <= 1
 R054: R{2,9} <= 1
 R055: R{2,10} <= 1
 R056: R{2,11} <= 1
 R057: R{3,0} <= 1
 R058: R{3,1} <= 1
 R059: R{3,2} <= 1
 R060: R{3,3} <= 1
 R061: R{3,4} <= 1
 R062: R{3,5} <= 1
 R063: R{3,6} <= 1
 R064: R{3,7} <= 1
 R065: R{3,8} <= 1
 R066: R{3,9} <= 1
 R067: R{3,10} <= 1
 R068: R{3,11} <= 1
 R069: R{3,12} <= 1
 R070: R{3,13} <= 1
 R071: R{3,14} <= 1
 R072: R{3,15} <= 1
 R073: R{3,16} <= 1
 R074: R{3,17} <= 1
 R075: R{3,18} <= 1
 R076: R{3,19} <= 1
 R077: R{3,20} <= 1
 R078: R{3,21} <= 1
 R079: R{3,22} <= 1
 R080: R{3,23} <= 1
 R081: R{3,24} <= 1
 R082: R{3,25} <= 1
 R083: R{3,26} <= 1
 R084: R{3,27} <= 1
 R085: R{4,0} <= 1
 R086: R{4,1} <= 1
 R087: R{4,2} <= 1
 R088: R{4,3} <= 1
 R089: R{4,4} <= 1
 R090: R{4,5} <= 1
 R091: R{4,6} <= 1
 R092: R{4,7} <= 1
 R093: R{4,8} <= 1
 R094: R{4,9} <= 1
 R095: R{4,10} <= 1
 R096: R{4,11} <= 1
 R097: R{4,12} <= 1
 R098: R{4,13} <= 1
 R099: R{4,14} <= 1
 R0100: R{4,15} <= 1
 R0101: R{4,16} <= 1
 R0102: R{4,17} <= 1
 R0103: R{4,18} <= 1
 R0104: R{4,19} <= 1
 R0105: R{4,20} <= 1
 R0106: R{4,21} <= 1
 R0107: R{4,22} <= 1
 R0108: R{4,23} <= 1
 R0109: R{4,24} <= 1
 R0110: R{4,25} <= 1
 R0111: R{4,26} <= 1
 R0112: R{4,27} <= 1
 R0113: R{4,28} <= 1
 R0114: R{5,0} <= 1
 R0115: R{5,1} <= 1
 R0116: R{5,2} <= 1
 R0117: R{5,3} <= 1
 R0118: R{5,4} <= 1
 R0119: R{5,5} <= 1
 R0120: R{5,6} <= 1
 R0121: R{5,7} <= 1
 R0122: R{5,8} <= 1
 R0123: R{5,9} <= 1
 R0124: R{5,10} <= 1
 R0125: R{5,11} <= 1
 R0126: R{5,12} <= 1
 R0127: R{5,13} <= 1
 R0128: R{5,14} <= 1
 R0129: R{5,15} <= 1
 R0130: R{5,16} <= 1
 R0131: R{6,0} <= 1
 R0132: R{6,1} <= 1
 R0133: R{6,2} <= 1
 R0134: R{6,3} <= 1
 R0135: R{6,4} <= 1
 R0136: R{6,5} <= 1
 R0137: R{6,6} <= 1
 R0138: R{6,7} <= 1
 R0139: R{6,8} <= 1
 R0140: R{6,9} <= 1
 R0141: R{6,10} <= 1
 R0142: R{6,11} <= 1
 R0143: R{6,12} <= 1
 R0144: R{6,13} <= 1
 R0145: R{6,14} <= 1
 R0146: R{6,15} <= 1
 R0147: R{6,16} <= 1
 R0148: R{6,17} <= 1
 R0149: R{6,18} <= 1
 R0150: R{6,19} <= 1
 R0151: R{6,20} <= 1
 R0152: R{6,21} <= 1
 R0153: R{6,22} <= 1
 R0154: R{6,23} <= 1
 R0155: R{6,24} <= 1
 R0156: R{6,25} <= 1
 R0157: R{6,26} <= 1
 R0158: R{6,27} <= 1
 R0159: R{6,28} <= 1
 R0160: R{6,29} <= 1
 R0161: R{6,30} <= 1
 R0162: R{6,31} <= 1
 R1_0: R{0,0} + R{0,1} + R{0,2} + R{0,3} + R{0,4} + R{0,5} + R{0,6}
   + R{0,7} + R{0,8} + R{0,9} + R{0,10} + R{0,11} + R{0,12} + R{0,13}
   + R{0,14} + R{0,15} + R{0,16} + R{0,17} + R{0,18} + R{0,19} + R{0,20}
   + R{0,21} + R{0,22} + R{0,23} + R{0,24} + R{0,25} + R{0,26} + R{0,27}
   + R{0,28} + R{0,29} + R{0,30} + R{0,31} + R{0,32} + R{0,33} <= 1
 R1_1: R{1,0} + R{1,1} + R{1,2} + R{1,3} + R{1,4} + R{1,5} + R{1,6}
   + R{1,7} + R{1,8} + R{1,9} + R{1,10} <= 1
 R1_2: R{2,0} + R{2,1} + R{2,2} + R{2,3} + R{2,4} + R{2,5} + R{2,6}
   + R{2,7} + R{2,8} + R{2,9} + R{2,10} + R{2,11} <= 1
 R1_3: R{3,0} + R{3,1} + R{3,2} + R{3,3} + R{3,4} + R{3,5} + R{3,6}
   + R{3,7} + R{3,8} + R{3,9} + R{3,10} + R{3,11} + R{3,12} + R{3,13}
   + R{3,14} + R{3,15} + R{3,16} + R{3,17} + R{3,18} + R{3,19} + R{3,20}
   + R{3,21} + R{3,22} + R{3,23} + R{3,24} + R{3,25} + R{3,26} + R{3,27}
   <= 1
 R1_4: R{4,0} + R{4,1} + R{4,2} + R{4,3} + R{4,4} + R{4,5} + R{4,6}
   + R{4,7} + R{4,8} + R{4,9} + R{4,10} + R{4,11} + R{4,12} + R{4,13}
   + R{4,14} + R{4,15} + R{4,16} + R{4,17} + R{4,18} + R{4,19} + R{4,20}
   + R{4,21} + R{4,22} + R{4,23} + R{4,24} + R{4,25} + R{4,26} + R{4,27}
   + R{4,28} <= 1
 R1_5: R{5,0} + R{5,1} + R{5,2} + R{5,3} + R{5,4} + R{5,5} + R{5,6}
   + R{5,7} + R{5,8} + R{5,9} + R{5,10} + R{5,11} + R{5,12} + R{5,13}
   + R{5,14} + R{5,15} + R{5,16} <= 1
 R1_6: R{6,0} + R{6,1} + R{6,2} + R{6,3} + R{6,4} + R{6,5} + R{6,6}
   + R{6,7} + R{6,8} + R{6,9} + R{6,10} + R{6,11} + R{6,12} + R{6,13}
   + R{6,14} + R{6,15} + R{6,16} + R{6,17} + R{6,18} + R{6,19} + R{6,20}
   + R{6,21} + R{6,22} + R{6,23} + R{6,24} + R{6,25} + R{6,26} + R{6,27}
   + R{6,28} + R{6,29} + R{6,30} + R{6,31} <= 1
 R2_0: <= 7
 R2_1: 10 R{3,1} + 10 R{3,2} + 10 R{3,3} + 10 R{3,4} + 10 R{3,6}
   + 10 R{3,7} + 10 R{3,9} + 10 R{3,10} + 10 R{3,12} + 10 R{3,14}
   + 10 R{3,19} + 10 R{3,20} + 10 R{3,21} + 10 R{3,22} + 10 R{3,24}
   + 10 R{3,26} + 10 R{3,27} + 10 R{5,5} + 10 R{5,6} + 10 R{5,7}
   + 10 R{5,11} + 10 R{5,12} <= 10
 R2_2: <= 0
 R2_3: 4 R{5,1} + 4 R{5,2} + 4 R{5,3} + 4 R{5,4} + 4 R{5,5} + 4 R{5,7}
   + 4 R{5,8} + 4 R{5,9} + 4 R{5,10} + 4 R{5,11} + 4 R{5,14} <= 4
 R2_4: <= 0
 R2_5: 5 R{5,1} + 5 R{5,2} + 5 R{5,3} <= 5
 R2_6: 10 R{1,1} + 10 R{1,3} + 10 R{1,4} + 10 R{1,10} + 10 R{2,6}
   + 10 R{2,7} + 10 R{2,9} + 10 R{5,13} + 9 R{5,15} + 10 R{6,23} <= 10
 R2_7: 6 R{1,1} + 6 R{1,2} + 6 R{1,3} + 6 R{1,8} + 6 R{1,10} <= 6
 R2_8: <= 0
 R2_9: 12 R{4,1} + 12 R{4,2} + 12 R{4,3} + 12 R{4,4} + 12 R{4,5}
   + 12 R{4,6} + 12 R{4,7} + 12 R{4,8} + 12 R{4,9} + 12 R{4,10}
   + 12 R{4,11} + 12 R{4,12} + 12 R{4,13} + 12 R{4,14} + 12 R{4,16}
   + 12 R{4,17} + 12 R{4,19} + 12 R{4,20} + 12 R{4,21} + 12 R{4,22}
   + 12 R{4,23} + 12 R{4,24} + 12 R{4,25} + 12 R{4,27} + 12 R{4,28} <= 12
 R2_10: 8 R{6,1} + 8 R{6,2} + 8 R{6,7} + 8 R{6,9} + 8 R{6,10} + 8 R{6,12}
   + 8 R{6,19} + 8 R{6,24} + 8 R{6,27} + 8 R{6,28} <= 8
 R2_11: 15 R{3,16} + 15 R{3,23} <= 15
 R2_12: <= 0
 R2_13: <= 0
 R2_14: <= 0
 R2_15: 11 R{0,0} + 11 R{0,1} + 11 R{0,2} + 11 R{0,6} + 11 R{0,7}
   + 11 R{0,9} + 11 R{0,10} + 11 R{0,12} + 11 R{0,15} + 11 R{0,16}
   + 11 R{0,18} + 11 R{0,20} + 11 R{0,21} + 11 R{0,22} + 11 R{0,23}
   + 11 R{0,30} + 11 R{0,32} + 11 R{4,1} + 11 R{4,2} + 11 R{4,4}
   + 11 R{4,13} + 11 R{4,27} <= 11
 R2_16: 5 R{0,28} + 5 R{4,18} + 5 R{4,22} + 5 R{4,25} + 5 R{6,20} <= 5
 R2_17: 11 R{0,11} + 11 R{0,17} + 11 R{0,19} + 11 R{0,24} + 11 R{0,27}
   + 11 R{0,28} + 11 R{0,29} + 11 R{0,30} + 11 R{3,11} + 11 R{3,23} <= 11
 R2_18: 5 R{3,23} + 5 R{4,15} + 5 R{4,26} <= 5
 R2_19: 11 R{2,4} + 11 R{4,1} + 11 R{4,2} + 11 R{4,3} + 11 R{4,4}
   + 11 R{4,5} + 11 R{4,7} + 11 R{4,10} + 11 R{4,11} + 11 R{4,12}
   + 11 R{4,13} + 11 R{4,14} + 11 R{4,15} + 11 R{4,16} + 11 R{4,20}
   + 11 R{4,22} + 11 R{4,24} + 11 R{4,26} + 11 R{4,27} + 11 R{5,9} <= 11
 R2_20: 13 R{2,3} + 13 R{2,5} + 13 R{2,8} + 10 R{3,2} + 10 R{3,3}
   + 10 R{3,4} + 10 R{3,6} + 13 R{3,9} + 13 R{3,11} + 10 R{3,15}
   + 13 R{3,17} + 13 R{3,18} + 10 R{3,21} + 13 R{3,25} + 13 R{6,1}
   + 13 R{6,2} + 13 R{6,3} + 13 R{6,4} + 13 R{6,7} + 13 R{6,9} + 13 R{6,15}
   + 13 R{6,19} + 13 R{6,20} + 13 R{6,27} <= 13
 R2_21: <= 0
 R2_22: 10 R{0,10} + 10 R{0,12} + 10 R{0,16} + 10 R{3,13} + 10 R{3,16}
   + 10 R{4,8} + 10 R{4,9} + 10 R{4,15} + 10 R{4,21} + 10 R{4,26}
   + 10 R{6,14} <= 10
 R2_23: 14 R{4,10} + 14 R{4,11} + 14 R{4,12} + 14 R{4,15} + 14 R{4,16}
   + 14 R{4,18} + 14 R{4,20} + 14 R{4,21} + 14 R{4,26} + 14 R{6,3}
   + 14 R{6,4} + 14 R{6,6} + 14 R{6,8} + 14 R{6,14} + 14 R{6,15}
   + 14 R{6,21} + 14 R{6,22} + 14 R{6,25} <= 14
 R2_24: 10 R{0,27} + 10 R{2,5} + 10 R{2,11} + 10 R{3,1} + 10 R{3,2}
   + 10 R{3,3} + 10 R{3,6} + 10 R{3,7} + 10 R{3,8} + 10 R{3,9} + 10 R{3,10}
   + 10 R{3,13} + 10 R{3,15} + 10 R{3,16} + 10 R{3,19} + 10 R{3,21}
   + 10 R{3,22} + 10 R{3,26} + 10 R{3,27} + 10 R{4,13} + 10 R{5,11} <= 10
 R2_25: 13 R{0,0} + 13 R{0,1} + 13 R{0,2} + 13 R{0,6} + 13 R{0,7}
   + 13 R{0,8} + 13 R{0,9} + 13 R{0,10} + 13 R{0,12} + 13 R{0,13}
   + 13 R{0,14} + 13 R{0,15} + 13 R{0,16} + 13 R{0,18} + 13 R{0,20}
   + 13 R{0,22} + 13 R{0,23} + 13 R{0,25} + 13 R{0,26} + 13 R{0,31}
   + 13 R{0,32} + 13 R{0,33} + 13 R{3,16} + 13 R{4,1} + 13 R{4,2}
   + 13 R{4,3} + 13 R{4,6} + 13 R{4,7} + 13 R{4,10} + 13 R{4,11}
   + 13 R{4,12} + 13 R{4,13} + 13 R{4,14} + 13 R{4,15} + 13 R{4,17}
   + 13 R{4,20} + 13 R{4,23} + 13 R{4,26} + 13 R{4,27} + 13 R{4,28} <= 13
 R2_26: 6 R{5,1} + 6 R{5,2} + 6 R{5,3} + 6 R{5,4} + 6 R{5,6} + 6 R{5,8}
   + 6 R{5,10} + 6 R{5,12} + 6 R{5,13} + 6 R{5,14} + 6 R{5,15} + 6 R{5,16}
   + 6 R{6,7} + 6 R{6,9} + 6 R{6,13} + 6 R{6,22} + 6 R{6,29} + 6 R{6,30}
   <= 6
 R2_27: 5 R{0,7} + 5 R{0,11} + 5 R{0,15} + 5 R{0,20} + 5 R{0,29} + 5 R{1,5}
   + 5 R{1,9} + 5 R{2,10} + 5 R{3,11} + 5 R{3,17} + 5 R{3,24} + 5 R{3,25}
   + 5 R{4,28} + 5 R{5,2} + 5 R{5,3} + 5 R{5,8} + 5 R{5,14} + 5 R{5,16}
   + 5 R{6,1} + 5 R{6,2} + 5 R{6,3} + 5 R{6,4} + 5 R{6,5} + 5 R{6,6}
   + 5 R{6,7} + 5 R{6,9} + 5 R{6,10} + 5 R{6,12} + 5 R{6,13} + 5 R{6,15}
   + 5 R{6,16} + 5 R{6,17} + 5 R{6,18} + 5 R{6,19} + 5 R{6,20} + 5 R{6,22}
   + 5 R{6,24} + 5 R{6,25} + 5 R{6,26} + 5 R{6,27} + 5 R{6,28} + 5 R{6,29}
   + 5 R{6,31} <= 5
 R2_28: <= 0
 R2_29: <= 0
 R2_30: <= 0
 R2_31: <= 0
 R2_32: 7 R{0,4} + 7 R{0,5} + 7 R{5,8} + 7 R{5,9} <= 7
 R2_33: 12 R{1,8} + 12 R{6,16} <= 12
 R2_34: 5 R{0,0} + 5 R{0,1} + 5 R{0,2} + 5 R{0,6} + 5 R{0,7} + 5 R{0,8}
   + 5 R{0,9} + 5 R{0,11} + 5 R{0,13} + 5 R{0,14} + 5 R{0,17} + 5 R{0,19}
   + 5 R{0,20} + 5 R{0,23} + 5 R{0,24} + 5 R{0,25} + 5 R{0,27} + 5 R{0,28}
   + 5 R{0,29} + 5 R{0,30} + 5 R{0,32} + 5 R{0,33} + 5 R{3,11} + 5 R{3,23}
   + 5 R{6,8} <= 5
 R2_35: <= 0
 R2_36: 15 R{5,1} + 15 R{5,2} + 15 R{5,3} + 15 R{5,4} + 15 R{5,5}
   + 15 R{5,6} + 15 R{5,10} + 15 R{5,11} + 15 R{5,12} + 15 R{5,16} <= 16
 R2_37: 5 R{3,1} + 5 R{3,2} + 5 R{3,3} + 5 R{3,4} + 5 R{3,5} + 5 R{3,6}
   + 5 R{3,7} + 5 R{3,8} + 5 R{3,10} + 5 R{3,13} + 5 R{3,15} + 5 R{3,16}
   + 5 R{3,19} + 5 R{3,21} + 5 R{3,22} + 5 R{3,23} + 5 R{3,26} + 5 R{3,27}
   <= 5
 R2_38: <= 0
 R2_39: 15 R{0,0} + 15 R{0,1} + 15 R{0,2} + 15 R{0,7} + 15 R{0,10}
   + 15 R{0,11} + 15 R{0,12} + 15 R{0,16} + 15 R{0,21} + 15 R{0,23} <= 17
 R2_40: 15 R{2,1} + 15 R{2,2} + 15 R{2,3} + 15 R{2,4} + 15 R{2,5}
   + 15 R{2,6} + 15 R{2,7} + 15 R{2,9} + 15 R{2,10} + 15 R{2,11} <= 15
 R2_41: 5 R{0,0} + 5 R{0,1} + 5 R{0,2} + 5 R{0,6} + 5 R{0,7} + 5 R{0,8}
   + 5 R{0,9} + 5 R{0,10} + 5 R{0,11} + 5 R{0,13} + 5 R{0,15} + 5 R{0,17}
   + 5 R{0,19} + 5 R{0,21} + 5 R{0,23} + 5 R{0,29} + 5 R{0,32} + 5 R{3,2}
   + 5 R{3,3} + 5 R{3,7} + 5 R{3,10} + 5 R{3,12} + 5 R{3,15} + 5 R{3,17}
   + 5 R{3,18} + 5 R{3,19} + 5 R{3,20} + 5 R{3,22} + 5 R{3,24} + 5 R{3,25}
   + 5 R{3,26} + 5 R{3,27} + 5 R{4,4} + 5 R{4,5} + 5 R{4,6} + 5 R{4,16}
   + 5 R{4,18} + 5 R{4,19} + 5 R{4,22} + 5 R{4,24} + 5 R{4,25} + 5 R{6,6}
   + 5 R{6,13} + 5 R{6,15} + 5 R{6,19} + 5 R{6,21} + 5 R{6,23} + 5 R{6,24}
   <= 5
 R2_42: 4 R{2,1} + 4 R{2,2} + 4 R{2,3} + 4 R{2,5} + 4 R{2,6} + 4 R{2,7}
   + 4 R{2,9} + 4 R{2,10} + 4 R{2,11} <= 4
 R2_43: <= 0
 R2_44: <= 0
 R2_45: <= 0
 R2_46: 9 R{0,6} + 9 R{0,8} + 9 R{0,9} + 9 R{0,13} + 9 R{0,14} + 9 R{0,15}
   + 9 R{0,17} + 9 R{0,18} + 9 R{0,19} + 9 R{0,20} + 9 R{0,22} + 9 R{0,24}
   + 9 R{0,25} + 9 R{0,26} + 9 R{0,27} + 9 R{0,29} + 9 R{0,30} + 9 R{0,31}
   + 9 R{0,32} + 9 R{0,33} + 9 R{3,17} + 9 R{3,25} + 9 R{6,5} <= 9
 R2_47: 7 R{0,0} + 7 R{0,1} + 7 R{0,2} + 7 R{0,13} + 7 R{0,17} + 7 R{0,23}
   + 7 R{0,24} + 7 R{5,1} + 7 R{5,2} + 7 R{5,3} + 7 R{5,4} + 7 R{5,5}
   + 7 R{5,7} + 7 R{5,10} + 7 R{5,14} + 7 R{5,16} <= 7
 R2_48: 4 R{0,8} + 4 R{0,26} + 4 R{4,1} + 4 R{4,2} + 4 R{4,3} + 4 R{4,4}
   + 4 R{4,5} + 4 R{4,6} + 4 R{4,10} + 4 R{4,11} + 4 R{4,12} + 4 R{4,13}
   + 4 R{4,14} + 4 R{4,16} + 4 R{4,17} + 4 R{4,20} + 4 R{4,21} + 4 R{4,23}
   + 4 R{4,24} + 4 R{4,27} + 4 R{4,28} <= 4
 R2_49: <= 0
 R2_50: <= 0
 R2_51: 11 R{1,10} + 11 R{2,8} + 11 R{3,18} + 11 R{3,27} + 10 R{5,16}
   + 11 R{6,30} <= 11
 R2_52: 10 R{0,14} + 10 R{4,9} + 10 R{4,15} + 10 R{4,19} + 10 R{4,22}
   + 10 R{4,23} + 10 R{4,24} + 10 R{4,25} + 10 R{4,26} <= 10
 R2_53: 13 R{4,1} + 13 R{4,2} + 13 R{4,4} + 13 R{4,5} + 13 R{4,10}
   + 13 R{4,12} + 13 R{4,13} + 13 R{4,14} + 13 R{4,16} + 13 R{4,27}
   + 13 R{4,28} <= 13
 R2_54: 9 R{3,1} + 9 R{3,2} + 9 R{3,3} + 9 R{3,4} + 9 R{3,5} + 9 R{3,9}
   + 9 R{3,10} + 9 R{3,12} + 9 R{3,14} + 9 R{3,15} + 9 R{3,17} + 9 R{3,19}
   + 9 R{3,20} + 9 R{3,21} + 9 R{3,22} + 9 R{3,24} + 9 R{3,25} + 9 R{3,26}
   + 9 R{3,27} + 9 R{6,21} <= 9
 R2_55: 8 R{3,17} + 8 R{3,18} + 8 R{3,25} + 8 R{6,1} + 8 R{6,2} + 8 R{6,3}
   + 8 R{6,5} + 8 R{6,7} + 8 R{6,9} + 8 R{6,10} + 8 R{6,11} + 8 R{6,12}
   + 8 R{6,13} + 8 R{6,17} + 8 R{6,18} + 8 R{6,20} + 8 R{6,22} + 8 R{6,24}
   + 8 R{6,25} + 8 R{6,26} + 8 R{6,27} + 8 R{6,28} + 8 R{6,29} + 8 R{6,30}
   + 8 R{6,31} <= 8
 R2_56: 6 R{0,1} + 6 R{0,2} + 6 R{0,9} + 6 R{0,10} + 6 R{0,13} + 6 R{0,18}
   + 6 R{0,19} + 6 R{0,20} + 6 R{0,22} + 6 R{0,23} + 6 R{0,30} + 6 R{0,31}
   + 6 R{0,32} + 6 R{0,33} + 6 R{3,2} + 6 R{3,3} + 6 R{3,4} + 6 R{3,5}
   + 6 R{3,6} + 6 R{3,7} + 6 R{3,8} + 6 R{3,9} + 6 R{3,12} + 6 R{3,13}
   + 6 R{3,14} + 6 R{3,15} + 6 R{3,20} + 6 R{3,21} + 6 R{3,22} + 6 R{3,24}
   + 6 R{4,3} <= 6
 R2_57: <= 0
 R2_58: 15 R{3,23} <= 15
 R2_59: 10 R{0,22} + 10 R{0,26} + 10 R{0,31} + 10 R{3,9} + 10 R{3,11}
   + 10 R{3,21} + 10 R{4,7} + 10 R{4,8} + 10 R{4,9} + 10 R{4,11}
   + 10 R{4,17} + 10 R{4,20} + 10 R{4,21} + 10 R{4,23} + 10 R{6,8}
   + 10 R{6,18} <= 10
 R2_60: <= 0
 R2_61: 9 R{3,10} + 9 R{3,16} + 9 R{3,17} + 9 R{3,18} + 9 R{3,25}
   + 9 R{3,26} + 9 R{3,27} + 9 R{4,15} + 9 R{4,18} + 9 R{4,26} + 9 R{6,8}
   + 9 R{6,11} + 9 R{6,14} <= 9
 R2_62: <= 0
 R2_63: <= 0
 R2_64: <= 0
 R2_65: 5 R{0,16} + 5 R{0,25} + 5 R{4,22} + 5 R{6,1} + 5 R{6,2} + 5 R{6,3}
   + 5 R{6,4} + 5 R{6,5} + 5 R{6,6} + 5 R{6,7} + 5 R{6,8} + 5 R{6,9}
   + 5 R{6,10} + 5 R{6,11} + 5 R{6,12} + 5 R{6,13} + 5 R{6,15} + 5 R{6,16}
   + 5 R{6,17} + 5 R{6,18} + 5 R{6,19} + 5 R{6,20} + 5 R{6,21} + 5 R{6,22}
   + 5 R{6,25} + 5 R{6,26} + 5 R{6,27} + 5 R{6,29} + 5 R{6,31} <= 5
 R2_66: 7 R{5,13} + 7 R{5,15} + 7 R{6,1} + 7 R{6,2} + 7 R{6,3} + 7 R{6,4}
   + 7 R{6,5} + 7 R{6,6} + 7 R{6,10} + 7 R{6,11} + 7 R{6,12} + 7 R{6,15}
   + 7 R{6,16} + 7 R{6,17} + 7 R{6,18} + 7 R{6,19} + 7 R{6,20} + 7 R{6,21}
   + 7 R{6,22} + 7 R{6,23} + 7 R{6,24} + 7 R{6,25} + 7 R{6,27} + 7 R{6,28}
   + 7 R{6,31} <= 7
 R2_67: 3 R{3,2} + 3 R{3,3} + 3 R{3,4} + 3 R{3,5} + 3 R{3,6} + 3 R{3,7}
   + 3 R{3,8} + 3 R{3,9} + 3 R{3,10} + 3 R{3,12} + 3 R{3,13} + 3 R{3,14}
   + 3 R{3,15} + 3 R{3,20} + 3 R{3,21} + 3 R{3,22} + 3 R{3,24} + 3 R{3,26}
   + 3 R{3,27} + 3 R{6,4} + 3 R{6,6} + 3 R{6,15} + 3 R{6,17} + 3 R{6,18}
   + 3 R{6,21} + 3 R{6,25} + 3 R{6,26} + 3 R{6,29} + 3 R{6,30} <= 3
 R2_68: 6 R{4,1} + 6 R{4,13} + 6 R{4,27} + 6 R{4,28} + 6 R{6,2} + 6 R{6,3}
   + 6 R{6,4} + 6 R{6,5} + 6 R{6,7} + 6 R{6,9} + 6 R{6,10} + 6 R{6,11}
   + 6 R{6,12} + 6 R{6,13} + 6 R{6,15} + 6 R{6,16} + 6 R{6,17} + 6 R{6,18}
   + 6 R{6,19} + 6 R{6,20} + 6 R{6,21} + 6 R{6,22} + 6 R{6,24} + 6 R{6,25}
   + 6 R{6,26} + 6 R{6,27} + 6 R{6,28} + 6 R{6,29} + 6 R{6,30} + 6 R{6,31}
   <= 6
 R2_69: 7 R{0,0} + 7 R{0,1} + 7 R{0,2} + 7 R{0,6} + 7 R{0,9} + 7 R{0,13}
   + 7 R{0,17} + 7 R{0,23} + 7 R{0,24} + 7 R{0,27} + 7 R{0,32} + 7 R{4,1}
   + 7 R{4,2} + 7 R{4,3} + 7 R{4,4} + 7 R{4,5} + 7 R{4,6} + 7 R{4,7}
   + 7 R{4,8} + 7 R{4,10} + 7 R{4,11} + 7 R{4,12} + 7 R{4,14} + 7 R{4,16}
   + 7 R{4,17} + 7 R{4,18} + 7 R{4,20} + 7 R{4,21} + 7 R{4,22} + 7 R{4,23}
   + 7 R{4,24} + 7 R{4,25} + 7 R{4,27} <= 7
 R2_70: 11 R{1,1} + 11 R{1,2} + 11 R{1,10} <= 11
 R2_71: 7 R{3,1} + 7 R{3,2} + 7 R{3,3} + 7 R{3,6} + 7 R{3,8} + 7 R{3,10}
   + 7 R{3,12} + 7 R{3,13} + 7 R{3,14} + 7 R{3,15} + 7 R{3,19} + 7 R{3,20}
   + 7 R{3,21} + 7 R{3,22} + 7 R{3,26} + 7 R{6,11} + 7 R{6,23} <= 7
 R2_72: <= 0
 R2_73: 11 R{0,0} + 11 R{0,1} + 11 R{0,2} + 11 R{0,6} + 11 R{0,7}
   + 11 R{0,8} + 11 R{0,9} + 11 R{0,10} + 11 R{0,11} + 11 R{0,12}
   + 11 R{0,13} + 11 R{0,14} + 11 R{0,15} + 11 R{0,16} + 11 R{0,17}
   + 11 R{0,18} + 11 R{0,19} + 11 R{0,20} + 11 R{0,21} + 11 R{0,22}
   + 11 R{0,23} + 11 R{0,24} + 11 R{0,25} + 11 R{0,26} + 11 R{0,27}
   + 11 R{0,28} + 11 R{0,29} + 11 R{0,30} + 11 R{0,31} + 11 R{0,32}
   + 11 R{0,33} <= 11
 R2_74: 5 R{5,1} + 5 R{5,2} + 5 R{5,3} + 5 R{5,4} + 5 R{5,5} + 5 R{5,6}
   + 5 R{5,7} + 5 R{5,10} + 5 R{5,12} + 5 R{5,16} <= 5
 R2_75: 8 R{6,1} + 8 R{6,2} + 8 R{6,3} + 8 R{6,4} + 8 R{6,5} + 8 R{6,7}
   + 8 R{6,9} + 8 R{6,10} + 8 R{6,11} + 8 R{6,12} + 8 R{6,16} + 8 R{6,17}
   + 8 R{6,19} + 8 R{6,20} + 8 R{6,22} + 8 R{6,24} + 8 R{6,25} + 8 R{6,26}
   + 8 R{6,27} + 8 R{6,28} + 8 R{6,29} + 8 R{6,30} + 8 R{6,31} <= 8
 R2_76: 12 R{0,4} + 12 R{0,5} + 12 R{3,3} + 12 R{3,4} + 12 R{3,5}
   + 12 R{3,6} + 12 R{3,7} + 12 R{3,8} + 12 R{3,11} + 12 R{3,12}
   + 12 R{3,14} + 12 R{3,15} + 12 R{3,16} + 12 R{3,17} + 12 R{3,18}
   + 12 R{3,20} + 12 R{3,21} + 12 R{3,22} + 12 R{3,23} + 12 R{3,24}
   + 12 R{3,25} + 12 R{5,7} + 12 R{5,13} + 12 R{5,15} <= 12
 R2_77: 7 R{0,1} + 7 R{0,2} + 7 R{0,5} + 7 R{0,9} + 7 R{1,2} + 7 R{1,4}
   + 7 R{1,6} + 7 R{1,7} + 7 R{1,8} + 7 R{2,2} + 7 R{2,3} + 7 R{2,7}
   + 7 R{3,4} + 7 R{3,5} + 7 R{3,12} + 7 R{3,14} + 7 R{3,20} + 7 R{4,2}
   + 7 R{4,10} + 7 R{4,12} + 7 R{4,14} + 7 R{4,17} + 7 R{5,2} + 7 R{5,3}
   + 7 R{5,5} + 7 R{5,8} + 5 R{5,11} + 7 R{6,2} + 7 R{6,3} + 7 R{6,4}
   + 7 R{6,5} + 7 R{6,7} + 7 R{6,10} + 7 R{6,12} + 7 R{6,16} + 7 R{6,17}
   + 7 R{6,19} + 7 R{6,20} + 7 R{6,22} + 7 R{6,25} + 7 R{6,26} + 7 R{6,27}
   <= 7
Bounds
End
